(declare-fun _for_it_23 () Int)
(declare-fun _if_cond_79_val () (Array Int Int))

(assert (forall ((_for_it_107 Int) (kfdia Int) (kidia Int) (klev Int) (klon Int) (ncldtop Int))
  (=>
    (and
      (<= kidia (+ kfdia (- 1)))
      (<= ncldtop (+ klev (- 1)))
      (<= 0 _for_it_107)
      (<= (+ _for_it_107 1) 3)
      (not (or (exists ((_for_it_108_0 Int)(_for_it_108_1 Int)) (and (or (and (= _for_it_108_0 _for_it_108_1) (= 4 (+ _for_it_107 1))) (= _for_it_108_0 _for_it_108_1) (and (= _for_it_108_0 _for_it_108_1) (= _for_it_107 4))) (<= _for_it_108_1 (+ kfdia (- 1))) (<= (+ kidia (- 1)) _for_it_108_1) (<= _for_it_108_0 (+ kfdia (- 1))) (<= (+ kidia (- 1)) _for_it_108_0) (= (select _if_cond_79_val (- (+ (* (- (+ _for_it_23 1) ncldtop) (- (* kfdia 3) (* kidia 3))) _for_it_108_0 (* _for_it_107 (- kfdia kidia)) 1) kidia)) 1) (= (select _if_cond_79_val (- (+ (* (- (+ _for_it_23 1) ncldtop) (- (* kfdia 3) (* kidia 3))) _for_it_108_1 (* (+ _for_it_107 1) (- kfdia kidia)) 1) kidia)) 1))) (exists ((_for_it_108_0 Int)(_for_it_108_1 Int)) (and (or (and (= _for_it_108_0 _for_it_108_1) (= 4 (+ _for_it_107 1))) (and (= _for_it_108_0 _for_it_108_1) (= _for_it_107 (+ _for_it_107 1)))) (<= _for_it_108_1 (+ kfdia (- 1))) (<= (+ kidia (- 1)) _for_it_108_1) (<= _for_it_108_0 (+ kfdia (- 1))) (<= (+ kidia (- 1)) _for_it_108_0) (= (select _if_cond_79_val (- (+ (* (- (+ _for_it_23 1) ncldtop) (- (* kfdia 3) (* kidia 3))) _for_it_108_0 (* _for_it_107 (- kfdia kidia)) 1) kidia)) 1) (= (select _if_cond_79_val (- (+ (* (- (+ _for_it_23 1) ncldtop) (- (* kfdia 3) (* kidia 3))) _for_it_108_1 (* (+ _for_it_107 1) (- kfdia kidia)) 1) kidia)) 1))) (exists ((_for_it_108_0 Int)(_for_it_108_1 Int)) (and (<= _for_it_108_1 (+ kfdia (- 1))) (<= (+ kidia (- 1)) _for_it_108_1) (= _for_it_107 (- (+ _for_it_107 2) 1)) (<= _for_it_108_0 (+ kfdia (- 1))) (<= (+ kidia (- 1)) _for_it_108_0) (= _for_it_108_0 (- (+ _for_it_108_1 1) 1)) (= (select _if_cond_79_val (- (+ (* (- (+ _for_it_23 1) ncldtop) (- (* kfdia 3) (* kidia 3))) _for_it_108_0 (* _for_it_107 (- kfdia kidia)) 1) kidia)) 1))) (exists ((_for_it_108_0 Int)(_for_it_108_1 Int)) (and (<= _for_it_108_1 (+ kfdia (- 1))) (<= (+ kidia (- 1)) _for_it_108_1) (<= _for_it_108_0 (+ kfdia (- 1))) (<= (+ kidia (- 1)) _for_it_108_0) (or (and (= _for_it_108_0 _for_it_108_1) (= _for_it_107 (+ _for_it_107 1))) (and (= _for_it_108_0 _for_it_108_1) (= _for_it_107 4))) (= (select _if_cond_79_val (- (+ (* (- (+ _for_it_23 1) ncldtop) (- (* kfdia 3) (* kidia 3))) _for_it_108_0 (* _for_it_107 (- kfdia kidia)) 1) kidia)) 1) (= (select _if_cond_79_val (- (+ (* (- (+ _for_it_23 1) ncldtop) (- (* kfdia 3) (* kidia 3))) _for_it_108_1 (* (+ _for_it_107 1) (- kfdia kidia)) 1) kidia)) 1))) (exists ((_for_it_108_0 Int)(_for_it_108_1 Int)) (and (= _for_it_107 (+ _for_it_107 1)) (<= _for_it_108_1 (+ kfdia (- 1))) (<= (+ kidia (- 1)) _for_it_108_1) (<= _for_it_108_0 (+ kfdia (- 1))) (<= (+ kidia (- 1)) _for_it_108_0) (= (select _if_cond_79_val (- (+ (* (- (+ _for_it_23 1) ncldtop) (- (* kfdia 3) (* kidia 3))) _for_it_108_0 (* _for_it_107 (- kfdia kidia)) 1) kidia)) 1) (= _for_it_108_0 _for_it_108_1) (= (select _if_cond_79_val (- (+ (* (- (+ _for_it_23 1) ncldtop) (- (* kfdia 3) (* kidia 3))) _for_it_108_1 (* (+ _for_it_107 1) (- kfdia kidia)) 1) kidia)) 1))) (exists ((_for_it_108_0 Int)(_for_it_108_1 Int)) (and (= (- (+ (* (- (+ _for_it_23 1) ncldtop) (- (* kfdia 3) (* kidia 3))) _for_it_108_0 (* _for_it_107 (- kfdia kidia)) 1) kidia) (- (+ (* (- (+ _for_it_23 1) ncldtop) (- (* kfdia 3) (* kidia 3))) _for_it_108_1 (* (+ _for_it_107 1) (- kfdia kidia)) 1) kidia)) (<= _for_it_108_1 (+ kfdia (- 1))) (<= (+ kidia (- 1)) _for_it_108_1) (<= _for_it_108_0 (+ kfdia (- 1))) (<= (+ kidia (- 1)) _for_it_108_0))) (exists ((_for_it_108_0 Int)(_for_it_108_1 Int)) (and (<= _for_it_108_1 (+ kfdia (- 1))) (= (- (+ _for_it_108_0 1) 1) _for_it_108_1) (<= (+ kidia (- 1)) _for_it_108_1) (= (- (+ _for_it_107 1) 1) 4) (<= _for_it_108_0 (+ kfdia (- 1))) (<= (+ kidia (- 1)) _for_it_108_0) (= (select _if_cond_79_val (- (+ (* (- (+ _for_it_23 1) ncldtop) (- (* kfdia 3) (* kidia 3))) _for_it_108_1 (* (+ _for_it_107 1) (- kfdia kidia)) 1) kidia)) 1))) (exists ((_for_it_108_0 Int)(_for_it_108_1 Int)) (and (<= _for_it_108_1 (+ kfdia (- 1))) (= (- (+ _for_it_108_0 1) 1) _for_it_108_1) (<= (+ kidia (- 1)) _for_it_108_1) (<= _for_it_108_0 (+ kfdia (- 1))) (<= (+ kidia (- 1)) _for_it_108_0) (= (- (+ _for_it_107 1) 1) (+ _for_it_107 1)) (= (select _if_cond_79_val (- (+ (* (- (+ _for_it_23 1) ncldtop) (- (* kfdia 3) (* kidia 3))) _for_it_108_1 (* (+ _for_it_107 1) (- kfdia kidia)) 1) kidia)) 1))) (exists ((_for_it_108_0 Int)(_for_it_108_1 Int)) (and (<= _for_it_108_1 (+ kfdia (- 1))) (<= (+ kidia (- 1)) _for_it_108_1) (= 4 (- (+ _for_it_107 2) 1)) (<= _for_it_108_0 (+ kfdia (- 1))) (<= (+ kidia (- 1)) _for_it_108_0) (= _for_it_108_0 (- (+ _for_it_108_1 1) 1)) (= (select _if_cond_79_val (- (+ (* (- (+ _for_it_23 1) ncldtop) (- (* kfdia 3) (* kidia 3))) _for_it_108_0 (* _for_it_107 (- kfdia kidia)) 1) kidia)) 1)))))
    )
    false
  )
))

(check-sat)